************************************************************************
file with basedata            : mm35_.bas
initial value random generator: 317177163
************************************************************************
projects                      :  1
jobs (incl. supersource/sink ):  12
horizon                       :  90
RESOURCES
  - renewable                 :  2   R
  - nonrenewable              :  2   N
  - doubly constrained        :  0   D
************************************************************************
PROJECT INFORMATION:
pronr.  #jobs rel.date duedate tardcost  MPM-Time
    1     10      0       20        4       20
************************************************************************
PRECEDENCE RELATIONS:
jobnr.    #modes  #successors   successors
   0        1          3           1   2   3
   1        3          1           6
   2        3          3           4   8   9
   3        3          3           5   6   8
   4        3          1           7
   5        3          1           9
   6        3          2           7   9
   7        3          1          10
   8        3          1          11
   9        3          1          11
  10        3          1          11
  11        1          0        
************************************************************************
REQUESTS/DURATIONS:
jobnr. mode duration  R 1  R 2  R 3  R 4  E(W 1)  E(W 2)  E(W 3)
------------------------------------------------------------------------
  0      1     0       0    0    0    0     0       0       0
  1      1     1       9    9    0   10    18       0      10
  2      1     1       7    8    0    3    15       0       3
  3      1     6       6    6    2    0    72      12       0
  4      1     3       8    5   10    0    39      30       0
  5      1     8       5    7    0    3    96       0      24
  6      1     3       7    9    7    0    48      21       0
  7      1     9       9    9    0    6    162       0      54
  8      1     2       6   10    0    9    32       0      18
  9      1     2      10    6    7    0    32      14       0
 10      1     2       6    8    0    6    28       0      12
 11      1     0       0    0    0    0     0       0       0
************************************************************************
RESOURCEAVAILABILITIES:
  R 1  R 2  R 3
   21   39   37
************************************************************************
RESOURCE LIMITS:
jobnr.  l(R 1)  u(R 1)  l(R 2)  u(R 2)  l(R 3)  u(R 3)
------------------------------------------------------------------------
  0        0       0       0       0       0       0
  1       10      18       0       0       5      10
  2        8      15       0       0       2       3
  3        6      12       1       2       0       0
  4        7      13       5      10       0       0
  5        7      12       0       0       2       3
  6        9      16       4       7       0       0
  7       10      18       0       0       3       6
  8        8      16       0       0       5       9
  9        8      16       4       7       0       0
 10        7      14       0       0       3       6
 11        0       0       0       0       0       0
************************************************************************
SCENARIOS:
------------------------------------------------------------------------
RESOURCE k = 1
s = 1: (0, 20, 20, 98, 35, 95, 43, 210, 22, 32, 38, 0)
s = 2: (0, 21, 16, 74, 45, 126, 38, 150, 17, 21, 20, 0)
s = 3: (0, 20, 16, 42, 27, 103, 50, 131, 49, 28, 24, 0)
s = 4: (0, 21, 26, 78, 47, 117, 43, 235, 29, 30, 20, 0)
s = 5: (0, 13, 9, 93, 30, 134, 50, 173, 29, 44, 47, 0)
s = 6: (0, 24, 20, 66, 34, 57, 60, 145, 41, 50, 20, 0)
s = 7: (0, 17, 22, 88, 36, 98, 37, 99, 33, 32, 35, 0)
s = 8: (0, 28, 12, 54, 60, 86, 37, 151, 39, 50, 45, 0)
s = 9: (0, 23, 14, 50, 32, 63, 62, 113, 34, 36, 24, 0)
s = 10: (0, 20, 16, 58, 36, 102, 50, 176, 39, 35, 24, 0)
s = 11: (0, 22, 9, 51, 47, 127, 76, 126, 22, 23, 39, 0)
s = 12: (0, 27, 16, 82, 48, 94, 40, 128, 33, 27, 24, 0)
s = 13: (0, 12, 14, 69, 40, 59, 50, 243, 28, 25, 24, 0)
s = 14: (0, 18, 23, 75, 50, 70, 74, 151, 37, 38, 37, 0)
s = 15: (0, 15, 16, 48, 40, 81, 35, 166, 34, 45, 35, 0)
s = 16: (0, 16, 24, 59, 50, 95, 50, 191, 28, 39, 37, 0)
s = 17: (0, 20, 20, 85, 48, 101, 32, 149, 41, 24, 40, 0)
s = 18: (0, 28, 21, 40, 25, 76, 39, 98, 28, 34, 26, 0)
s = 19: (0, 23, 10, 50, 56, 107, 36, 208, 22, 24, 23, 0)
s = 20: (0, 19, 12, 57, 38, 87, 39, 221, 35, 50, 19, 0)
s = 21: (0, 28, 11, 70, 45, 111, 50, 168, 42, 50, 16, 0)
s = 22: (0, 13, 19, 88, 45, 110, 62, 114, 35, 43, 27, 0)
s = 23: (0, 14, 14, 54, 29, 154, 37, 139, 35, 21, 32, 0)
s = 24: (0, 16, 18, 55, 28, 86, 54, 219, 20, 35, 32, 0)
s = 25: (0, 28, 19, 121, 26, 109, 80, 152, 27, 31, 23, 0)
s = 26: (0, 26, 23, 63, 54, 72, 52, 282, 46, 31, 28, 0)
s = 27: (0, 21, 10, 105, 41, 57, 62, 101, 37, 42, 30, 0)
s = 28: (0, 23, 13, 68, 27, 79, 57, 219, 25, 27, 23, 0)
s = 29: (0, 31, 11, 92, 27, 72, 58, 212, 27, 29, 30, 0)
s = 30: (0, 11, 14, 43, 37, 93, 37, 260, 45, 28, 32, 0)
s = 31: (0, 12, 18, 68, 50, 64, 34, 97, 27, 33, 27, 0)
s = 32: (0, 24, 13, 143, 56, 80, 51, 97, 26, 54, 18, 0)
s = 33: (0, 21, 14, 79, 47, 73, 46, 230, 21, 54, 39, 0)
s = 34: (0, 13, 14, 76, 38, 106, 44, 141, 42, 34, 33, 0)
s = 35: (0, 18, 21, 78, 41, 103, 62, 102, 24, 21, 33, 0)
s = 36: (0, 18, 12, 73, 46, 119, 39, 219, 18, 24, 23, 0)
s = 37: (0, 15, 16, 76, 24, 91, 37, 178, 33, 20, 21, 0)
s = 38: (0, 23, 10, 73, 39, 108, 29, 124, 36, 28, 19, 0)
s = 39: (0, 13, 13, 80, 47, 78, 46, 159, 25, 26, 27, 0)
s = 40: (0, 19, 14, 90, 69, 75, 42, 158, 19, 39, 42, 0)
s = 41: (0, 22, 11, 55, 40, 111, 46, 190, 27, 26, 29, 0)
s = 42: (0, 18, 18, 55, 34, 101, 45, 158, 29, 40, 24, 0)
s = 43: (0, 14, 26, 49, 39, 109, 46, 230, 30, 37, 17, 0)
s = 44: (0, 19, 13, 90, 31, 61, 47, 188, 33, 18, 30, 0)
s = 45: (0, 18, 22, 57, 34, 119, 61, 105, 29, 30, 32, 0)
s = 46: (0, 16, 21, 51, 39, 78, 32, 115, 27, 30, 42, 0)
s = 47: (0, 11, 9, 66, 39, 82, 67, 131, 38, 49, 27, 0)
s = 48: (0, 14, 25, 93, 24, 97, 49, 125, 25, 32, 28, 0)
s = 49: (0, 23, 14, 58, 45, 106, 38, 120, 35, 28, 26, 0)
s = 50: (0, 13, 16, 40, 25, 89, 64, 175, 34, 22, 28, 0)
s = 51: (0, 20, 16, 53, 49, 73, 59, 109, 30, 37, 18, 0)
s = 52: (0, 13, 9, 48, 30, 98, 33, 159, 39, 28, 20, 0)
s = 53: (0, 16, 28, 109, 30, 63, 54, 136, 37, 47, 31, 0)
s = 54: (0, 24, 21, 60, 47, 136, 67, 158, 33, 44, 20, 0)
s = 55: (0, 20, 16, 89, 38, 62, 48, 170, 28, 27, 25, 0)
s = 56: (0, 22, 13, 104, 23, 132, 60, 169, 35, 26, 29, 0)
s = 57: (0, 13, 24, 61, 44, 88, 53, 244, 33, 21, 26, 0)
s = 58: (0, 29, 19, 45, 23, 62, 30, 238, 45, 42, 25, 0)
s = 59: (0, 14, 11, 83, 58, 114, 42, 141, 46, 40, 17, 0)
s = 60: (0, 15, 22, 70, 52, 64, 38, 131, 35, 32, 23, 0)
s = 61: (0, 13, 8, 80, 55, 61, 47, 154, 28, 44, 15, 0)
s = 62: (0, 14, 21, 43, 35, 61, 34, 210, 28, 32, 31, 0)
s = 63: (0, 18, 17, 65, 30, 89, 27, 165, 39, 31, 22, 0)
s = 64: (0, 18, 18, 66, 33, 127, 34, 136, 21, 20, 32, 0)
s = 65: (0, 17, 16, 77, 43, 94, 68, 164, 25, 31, 19, 0)
s = 66: (0, 22, 15, 74, 29, 60, 42, 198, 42, 24, 45, 0)
s = 67: (0, 20, 20, 95, 47, 82, 43, 138, 41, 33, 37, 0)
s = 68: (0, 12, 18, 68, 61, 156, 28, 171, 37, 34, 36, 0)
s = 69: (0, 16, 10, 59, 43, 158, 44, 161, 33, 33, 31, 0)
s = 70: (0, 19, 12, 97, 40, 123, 51, 224, 52, 25, 31, 0)
s = 71: (0, 18, 13, 52, 50, 89, 35, 181, 36, 31, 36, 0)
s = 72: (0, 12, 22, 60, 55, 90, 58, 154, 48, 35, 18, 0)
s = 73: (0, 27, 14, 107, 32, 106, 56, 208, 25, 28, 29, 0)
s = 74: (0, 13, 16, 97, 35, 61, 43, 218, 31, 29, 29, 0)
s = 75: (0, 26, 15, 104, 54, 96, 48, 193, 50, 39, 23, 0)
s = 76: (0, 30, 17, 68, 51, 80, 35, 145, 41, 48, 20, 0)
s = 77: (0, 16, 16, 87, 33, 87, 75, 111, 53, 19, 20, 0)
s = 78: (0, 20, 26, 90, 48, 105, 49, 179, 30, 31, 29, 0)
s = 79: (0, 30, 20, 99, 38, 103, 28, 234, 21, 32, 24, 0)
s = 80: (0, 15, 12, 98, 38, 120, 39, 145, 33, 21, 31, 0)
s = 81: (0, 12, 15, 47, 45, 61, 28, 179, 39, 22, 38, 0)
s = 82: (0, 21, 26, 46, 42, 117, 40, 164, 27, 31, 24, 0)
s = 83: (0, 15, 11, 52, 29, 108, 69, 170, 34, 32, 35, 0)
s = 84: (0, 18, 21, 88, 49, 64, 48, 132, 25, 29, 25, 0)
s = 85: (0, 16, 12, 71, 30, 112, 50, 132, 44, 28, 17, 0)
s = 86: (0, 24, 21, 74, 38, 88, 43, 202, 27, 43, 22, 0)
s = 87: (0, 18, 10, 69, 34, 94, 34, 104, 28, 50, 27, 0)
s = 88: (0, 16, 18, 93, 37, 92, 51, 110, 29, 25, 17, 0)
s = 89: (0, 22, 17, 65, 37, 75, 45, 174, 49, 22, 20, 0)
s = 90: (0, 20, 11, 126, 52, 81, 42, 172, 38, 35, 55, 0)
s = 91: (0, 23, 19, 80, 23, 61, 35, 143, 27, 42, 34, 0)
s = 92: (0, 15, 21, 71, 37, 63, 42, 119, 26, 37, 40, 0)
s = 93: (0, 15, 18, 65, 41, 111, 41, 163, 26, 28, 26, 0)
s = 94: (0, 19, 13, 70, 42, 94, 57, 270, 50, 33, 26, 0)
s = 95: (0, 23, 22, 45, 36, 113, 31, 154, 55, 33, 19, 0)
s = 96: (0, 18, 18, 103, 40, 71, 46, 138, 22, 19, 32, 0)
s = 97: (0, 21, 17, 56, 49, 99, 70, 165, 19, 23, 18, 0)
s = 98: (0, 14, 15, 79, 49, 97, 43, 225, 46, 23, 37, 0)
s = 99: (0, 14, 15, 49, 36, 99, 66, 153, 58, 49, 36, 0)
s = 100: (0, 15, 13, 65, 37, 89, 37, 163, 49, 29, 35, 0)
s = 101: (0, 19, 13, 78, 24, 87, 45, 186, 24, 25, 17, 0)
s = 102: (0, 13, 20, 52, 26, 88, 56, 97, 27, 40, 32, 0)
s = 103: (0, 21, 20, 69, 39, 60, 74, 114, 41, 30, 22, 0)
s = 104: (0, 27, 26, 41, 38, 100, 48, 127, 24, 46, 21, 0)
s = 105: (0, 22, 9, 59, 65, 74, 41, 145, 17, 26, 45, 0)
s = 106: (0, 13, 14, 112, 57, 108, 59, 157, 22, 55, 23, 0)
s = 107: (0, 23, 16, 98, 29, 93, 54, 135, 29, 23, 24, 0)
s = 108: (0, 13, 11, 44, 37, 92, 74, 103, 34, 27, 30, 0)
s = 109: (0, 19, 27, 92, 51, 141, 42, 136, 32, 25, 45, 0)
s = 110: (0, 19, 13, 94, 48, 154, 80, 145, 37, 33, 42, 0)
s = 111: (0, 21, 16, 75, 37, 78, 35, 188, 22, 29, 19, 0)
s = 112: (0, 20, 15, 74, 39, 58, 42, 131, 47, 41, 28, 0)
s = 113: (0, 14, 30, 120, 40, 131, 39, 215, 40, 27, 17, 0)
s = 114: (0, 17, 12, 90, 40, 62, 48, 153, 25, 42, 30, 0)
s = 115: (0, 22, 18, 112, 28, 71, 37, 148, 34, 21, 38, 0)
s = 116: (0, 24, 11, 96, 49, 57, 60, 212, 19, 31, 37, 0)
s = 117: (0, 18, 23, 46, 33, 83, 43, 202, 20, 35, 20, 0)
s = 118: (0, 15, 18, 76, 50, 143, 31, 144, 31, 31, 23, 0)
s = 119: (0, 12, 18, 85, 47, 74, 74, 112, 34, 44, 47, 0)
s = 120: (0, 22, 19, 65, 41, 74, 66, 208, 35, 18, 33, 0)
s = 121: (0, 21, 16, 52, 33, 66, 33, 247, 42, 37, 32, 0)
s = 122: (0, 17, 20, 67, 36, 123, 56, 200, 49, 28, 29, 0)
s = 123: (0, 15, 17, 79, 36, 144, 41, 194, 38, 30, 33, 0)
s = 124: (0, 12, 21, 78, 41, 140, 53, 195, 29, 30, 38, 0)
s = 125: (0, 18, 20, 92, 27, 54, 43, 159, 32, 35, 26, 0)
s = 126: (0, 16, 12, 69, 43, 88, 48, 184, 25, 19, 18, 0)
s = 127: (0, 17, 18, 77, 39, 101, 50, 106, 28, 18, 19, 0)
s = 128: (0, 21, 12, 66, 30, 111, 55, 147, 42, 21, 35, 0)
s = 129: (0, 21, 20, 63, 38, 82, 47, 203, 37, 35, 26, 0)
s = 130: (0, 24, 13, 76, 54, 87, 37, 173, 37, 37, 22, 0)
s = 131: (0, 12, 17, 64, 39, 67, 33, 150, 33, 21, 40, 0)
s = 132: (0, 16, 18, 70, 38, 108, 49, 115, 24, 26, 35, 0)
s = 133: (0, 15, 13, 77, 48, 80, 25, 190, 20, 37, 18, 0)
s = 134: (0, 17, 19, 69, 31, 62, 47, 124, 22, 39, 28, 0)
s = 135: (0, 13, 23, 85, 35, 134, 57, 104, 43, 39, 23, 0)
s = 136: (0, 22, 29, 55, 42, 64, 46, 214, 35, 42, 25, 0)
s = 137: (0, 17, 11, 52, 37, 92, 54, 240, 45, 40, 31, 0)
s = 138: (0, 18, 21, 119, 35, 88, 65, 132, 49, 35, 22, 0)
s = 139: (0, 16, 16, 69, 32, 107, 57, 201, 39, 32, 27, 0)
s = 140: (0, 20, 19, 110, 59, 110, 30, 171, 28, 29, 31, 0)
s = 141: (0, 15, 12, 63, 44, 145, 50, 125, 47, 25, 20, 0)
s = 142: (0, 16, 13, 134, 61, 74, 51, 175, 26, 42, 17, 0)
s = 143: (0, 13, 15, 92, 52, 109, 58, 108, 31, 24, 21, 0)
s = 144: (0, 25, 14, 60, 27, 79, 26, 226, 26, 40, 44, 0)
s = 145: (0, 14, 10, 54, 28, 112, 47, 173, 47, 26, 41, 0)
s = 146: (0, 13, 14, 67, 36, 80, 86, 117, 26, 35, 41, 0)
s = 147: (0, 14, 8, 43, 46, 105, 34, 117, 25, 25, 23, 0)
s = 148: (0, 15, 12, 84, 32, 76, 64, 129, 30, 22, 17, 0)
s = 149: (0, 22, 12, 93, 40, 84, 54, 128, 40, 19, 28, 0)
s = 150: (0, 16, 24, 84, 38, 119, 48, 177, 42, 45, 33, 0)
s = 151: (0, 19, 12, 76, 56, 136, 33, 114, 23, 30, 44, 0)
s = 152: (0, 13, 14, 82, 33, 128, 41, 178, 24, 24, 23, 0)
s = 153: (0, 19, 20, 72, 24, 88, 41, 160, 25, 33, 24, 0)
s = 154: (0, 20, 11, 79, 24, 74, 37, 194, 27, 28, 35, 0)
s = 155: (0, 17, 17, 104, 51, 60, 44, 214, 28, 36, 34, 0)
s = 156: (0, 25, 18, 56, 42, 64, 35, 170, 46, 33, 22, 0)
s = 157: (0, 19, 19, 56, 33, 79, 43, 131, 36, 57, 26, 0)
s = 158: (0, 16, 11, 101, 25, 77, 31, 140, 47, 23, 36, 0)
s = 159: (0, 13, 12, 64, 29, 108, 33, 175, 40, 37, 35, 0)
s = 160: (0, 12, 11, 105, 46, 146, 61, 193, 31, 52, 30, 0)
s = 161: (0, 17, 16, 57, 51, 68, 36, 163, 22, 45, 31, 0)
s = 162: (0, 18, 23, 77, 26, 97, 45, 227, 55, 39, 23, 0)
s = 163: (0, 16, 15, 61, 54, 103, 44, 136, 25, 33, 17, 0)
s = 164: (0, 21, 16, 78, 25, 124, 53, 116, 55, 23, 38, 0)
s = 165: (0, 22, 12, 105, 73, 71, 60, 144, 28, 46, 25, 0)
s = 166: (0, 21, 19, 91, 40, 120, 28, 183, 30, 35, 19, 0)
s = 167: (0, 12, 12, 48, 32, 148, 52, 268, 20, 33, 33, 0)
s = 168: (0, 30, 19, 77, 37, 85, 46, 132, 34, 36, 23, 0)
s = 169: (0, 27, 12, 54, 24, 84, 56, 210, 36, 21, 25, 0)
s = 170: (0, 23, 24, 88, 44, 116, 86, 117, 41, 27, 42, 0)
s = 171: (0, 19, 11, 125, 43, 135, 58, 176, 34, 21, 52, 0)
s = 172: (0, 14, 13, 73, 27, 88, 32, 263, 35, 47, 19, 0)
s = 173: (0, 16, 15, 85, 40, 88, 45, 156, 24, 33, 20, 0)
s = 174: (0, 16, 13, 82, 28, 60, 26, 131, 27, 33, 19, 0)
s = 175: (0, 24, 15, 61, 41, 89, 59, 97, 53, 19, 19, 0)
s = 176: (0, 12, 11, 93, 39, 75, 40, 127, 32, 28, 46, 0)
s = 177: (0, 15, 14, 92, 34, 65, 30, 98, 29, 20, 19, 0)
s = 178: (0, 21, 9, 85, 32, 70, 42, 184, 24, 42, 20, 0)
s = 179: (0, 20, 19, 49, 35, 65, 39, 195, 34, 25, 27, 0)
s = 180: (0, 18, 20, 64, 49, 93, 66, 235, 30, 34, 26, 0)
s = 181: (0, 18, 17, 63, 36, 84, 54, 179, 38, 31, 28, 0)
s = 182: (0, 29, 12, 59, 38, 79, 50, 228, 33, 23, 23, 0)
s = 183: (0, 19, 16, 57, 29, 80, 30, 97, 43, 20, 20, 0)
s = 184: (0, 12, 9, 62, 47, 72, 58, 212, 27, 21, 35, 0)
s = 185: (0, 18, 19, 71, 40, 120, 55, 192, 34, 26, 26, 0)
s = 186: (0, 16, 17, 81, 62, 77, 44, 150, 25, 20, 33, 0)
s = 187: (0, 17, 16, 73, 28, 85, 39, 157, 33, 51, 26, 0)
s = 188: (0, 24, 20, 105, 27, 84, 62, 181, 25, 28, 24, 0)
s = 189: (0, 13, 22, 70, 44, 106, 51, 190, 32, 33, 33, 0)
s = 190: (0, 20, 12, 95, 28, 72, 55, 151, 50, 31, 35, 0)
s = 191: (0, 25, 12, 132, 22, 69, 51, 142, 32, 48, 30, 0)
s = 192: (0, 27, 15, 60, 29, 68, 35, 112, 29, 35, 29, 0)
s = 193: (0, 15, 13, 76, 36, 91, 39, 172, 27, 39, 26, 0)
s = 194: (0, 18, 9, 62, 26, 92, 43, 108, 32, 36, 21, 0)
s = 195: (0, 12, 14, 68, 64, 76, 69, 192, 25, 34, 21, 0)
s = 196: (0, 16, 17, 96, 42, 144, 71, 164, 38, 26, 29, 0)
s = 197: (0, 16, 16, 66, 43, 75, 31, 173, 20, 23, 33, 0)
s = 198: (0, 27, 29, 42, 39, 124, 54, 248, 23, 29, 29, 0)
s = 199: (0, 16, 12, 89, 61, 86, 47, 121, 29, 36, 30, 0)
s = 200: (0, 14, 14, 86, 36, 103, 51, 97, 27, 20, 29, 0)
------------------------------------------------------------------------
RESOURCE k = 2
s = 1: (0, 0, 0, 17, 27, 0, 19, 0, 0, 14, 0, 0)
s = 2: (0, 0, 0, 13, 35, 0, 17, 0, 0, 9, 0, 0)
s = 3: (0, 0, 0, 7, 21, 0, 22, 0, 0, 12, 0, 0)
s = 4: (0, 0, 0, 13, 36, 0, 19, 0, 0, 13, 0, 0)
s = 5: (0, 0, 0, 16, 23, 0, 22, 0, 0, 19, 0, 0)
s = 6: (0, 0, 0, 11, 26, 0, 26, 0, 0, 22, 0, 0)
s = 7: (0, 0, 0, 15, 28, 0, 16, 0, 0, 14, 0, 0)
s = 8: (0, 0, 0, 9, 46, 0, 16, 0, 0, 22, 0, 0)
s = 9: (0, 0, 0, 9, 25, 0, 27, 0, 0, 16, 0, 0)
s = 10: (0, 0, 0, 10, 28, 0, 22, 0, 0, 16, 0, 0)
s = 11: (0, 0, 0, 9, 37, 0, 34, 0, 0, 10, 0, 0)
s = 12: (0, 0, 0, 14, 37, 0, 18, 0, 0, 12, 0, 0)
s = 13: (0, 0, 0, 12, 31, 0, 22, 0, 0, 11, 0, 0)
s = 14: (0, 0, 0, 13, 38, 0, 33, 0, 0, 17, 0, 0)
s = 15: (0, 0, 0, 8, 31, 0, 15, 0, 0, 20, 0, 0)
s = 16: (0, 0, 0, 10, 38, 0, 22, 0, 0, 18, 0, 0)
s = 17: (0, 0, 0, 15, 37, 0, 14, 0, 0, 11, 0, 0)
s = 18: (0, 0, 0, 7, 19, 0, 18, 0, 0, 15, 0, 0)
s = 19: (0, 0, 0, 9, 43, 0, 16, 0, 0, 11, 0, 0)
s = 20: (0, 0, 0, 10, 29, 0, 17, 0, 0, 22, 0, 0)
s = 21: (0, 0, 0, 12, 35, 0, 22, 0, 0, 22, 0, 0)
s = 22: (0, 0, 0, 15, 34, 0, 27, 0, 0, 19, 0, 0)
s = 23: (0, 0, 0, 9, 23, 0, 17, 0, 0, 9, 0, 0)
s = 24: (0, 0, 0, 10, 22, 0, 24, 0, 0, 16, 0, 0)
s = 25: (0, 0, 0, 21, 20, 0, 35, 0, 0, 14, 0, 0)
s = 26: (0, 0, 0, 11, 42, 0, 23, 0, 0, 14, 0, 0)
s = 27: (0, 0, 0, 18, 32, 0, 27, 0, 0, 19, 0, 0)
s = 28: (0, 0, 0, 12, 21, 0, 25, 0, 0, 12, 0, 0)
s = 29: (0, 0, 0, 16, 21, 0, 26, 0, 0, 13, 0, 0)
s = 30: (0, 0, 0, 8, 29, 0, 16, 0, 0, 12, 0, 0)
s = 31: (0, 0, 0, 12, 38, 0, 15, 0, 0, 15, 0, 0)
s = 32: (0, 0, 0, 24, 44, 0, 23, 0, 0, 24, 0, 0)
s = 33: (0, 0, 0, 14, 36, 0, 20, 0, 0, 24, 0, 0)
s = 34: (0, 0, 0, 13, 30, 0, 19, 0, 0, 15, 0, 0)
s = 35: (0, 0, 0, 13, 31, 0, 27, 0, 0, 10, 0, 0)
s = 36: (0, 0, 0, 13, 35, 0, 17, 0, 0, 11, 0, 0)
s = 37: (0, 0, 0, 13, 18, 0, 17, 0, 0, 9, 0, 0)
s = 38: (0, 0, 0, 13, 30, 0, 13, 0, 0, 12, 0, 0)
s = 39: (0, 0, 0, 14, 37, 0, 20, 0, 0, 12, 0, 0)
s = 40: (0, 0, 0, 15, 53, 0, 19, 0, 0, 17, 0, 0)
s = 41: (0, 0, 0, 10, 31, 0, 20, 0, 0, 12, 0, 0)
s = 42: (0, 0, 0, 10, 26, 0, 20, 0, 0, 18, 0, 0)
s = 43: (0, 0, 0, 9, 30, 0, 20, 0, 0, 16, 0, 0)
s = 44: (0, 0, 0, 15, 24, 0, 21, 0, 0, 8, 0, 0)
s = 45: (0, 0, 0, 10, 26, 0, 27, 0, 0, 13, 0, 0)
s = 46: (0, 0, 0, 9, 30, 0, 14, 0, 0, 14, 0, 0)
s = 47: (0, 0, 0, 11, 30, 0, 30, 0, 0, 22, 0, 0)
s = 48: (0, 0, 0, 16, 19, 0, 22, 0, 0, 14, 0, 0)
s = 49: (0, 0, 0, 10, 35, 0, 17, 0, 0, 12, 0, 0)
s = 50: (0, 0, 0, 7, 19, 0, 28, 0, 0, 10, 0, 0)
s = 51: (0, 0, 0, 9, 38, 0, 26, 0, 0, 16, 0, 0)
s = 52: (0, 0, 0, 8, 24, 0, 15, 0, 0, 12, 0, 0)
s = 53: (0, 0, 0, 19, 23, 0, 24, 0, 0, 21, 0, 0)
s = 54: (0, 0, 0, 10, 37, 0, 30, 0, 0, 20, 0, 0)
s = 55: (0, 0, 0, 15, 29, 0, 21, 0, 0, 12, 0, 0)
s = 56: (0, 0, 0, 18, 18, 0, 27, 0, 0, 11, 0, 0)
s = 57: (0, 0, 0, 11, 34, 0, 23, 0, 0, 9, 0, 0)
s = 58: (0, 0, 0, 8, 18, 0, 14, 0, 0, 19, 0, 0)
s = 59: (0, 0, 0, 14, 45, 0, 19, 0, 0, 18, 0, 0)
s = 60: (0, 0, 0, 12, 40, 0, 17, 0, 0, 14, 0, 0)
s = 61: (0, 0, 0, 14, 43, 0, 21, 0, 0, 19, 0, 0)
s = 62: (0, 0, 0, 8, 27, 0, 15, 0, 0, 14, 0, 0)
s = 63: (0, 0, 0, 11, 23, 0, 12, 0, 0, 14, 0, 0)
s = 64: (0, 0, 0, 11, 25, 0, 15, 0, 0, 9, 0, 0)
s = 65: (0, 0, 0, 13, 33, 0, 30, 0, 0, 14, 0, 0)
s = 66: (0, 0, 0, 13, 22, 0, 19, 0, 0, 11, 0, 0)
s = 67: (0, 0, 0, 16, 36, 0, 19, 0, 0, 15, 0, 0)
s = 68: (0, 0, 0, 12, 47, 0, 13, 0, 0, 15, 0, 0)
s = 69: (0, 0, 0, 10, 33, 0, 20, 0, 0, 15, 0, 0)
s = 70: (0, 0, 0, 17, 31, 0, 23, 0, 0, 11, 0, 0)
s = 71: (0, 0, 0, 9, 38, 0, 16, 0, 0, 14, 0, 0)
s = 72: (0, 0, 0, 10, 42, 0, 26, 0, 0, 16, 0, 0)
s = 73: (0, 0, 0, 18, 24, 0, 25, 0, 0, 13, 0, 0)
s = 74: (0, 0, 0, 17, 27, 0, 19, 0, 0, 13, 0, 0)
s = 75: (0, 0, 0, 18, 42, 0, 21, 0, 0, 17, 0, 0)
s = 76: (0, 0, 0, 12, 40, 0, 16, 0, 0, 21, 0, 0)
s = 77: (0, 0, 0, 15, 26, 0, 33, 0, 0, 9, 0, 0)
s = 78: (0, 0, 0, 15, 37, 0, 22, 0, 0, 14, 0, 0)
s = 79: (0, 0, 0, 17, 29, 0, 12, 0, 0, 14, 0, 0)
s = 80: (0, 0, 0, 17, 29, 0, 17, 0, 0, 10, 0, 0)
s = 81: (0, 0, 0, 8, 35, 0, 12, 0, 0, 10, 0, 0)
s = 82: (0, 0, 0, 8, 33, 0, 18, 0, 0, 14, 0, 0)
s = 83: (0, 0, 0, 9, 22, 0, 31, 0, 0, 14, 0, 0)
s = 84: (0, 0, 0, 15, 38, 0, 21, 0, 0, 13, 0, 0)
s = 85: (0, 0, 0, 12, 23, 0, 22, 0, 0, 13, 0, 0)
s = 86: (0, 0, 0, 13, 29, 0, 19, 0, 0, 19, 0, 0)
s = 87: (0, 0, 0, 12, 26, 0, 15, 0, 0, 22, 0, 0)
s = 88: (0, 0, 0, 16, 29, 0, 22, 0, 0, 11, 0, 0)
s = 89: (0, 0, 0, 11, 28, 0, 20, 0, 0, 10, 0, 0)
s = 90: (0, 0, 0, 21, 40, 0, 19, 0, 0, 16, 0, 0)
s = 91: (0, 0, 0, 14, 18, 0, 15, 0, 0, 19, 0, 0)
s = 92: (0, 0, 0, 12, 29, 0, 19, 0, 0, 16, 0, 0)
s = 93: (0, 0, 0, 11, 32, 0, 18, 0, 0, 13, 0, 0)
s = 94: (0, 0, 0, 12, 33, 0, 25, 0, 0, 15, 0, 0)
s = 95: (0, 0, 0, 8, 28, 0, 14, 0, 0, 15, 0, 0)
s = 96: (0, 0, 0, 18, 31, 0, 20, 0, 0, 8, 0, 0)
s = 97: (0, 0, 0, 10, 38, 0, 31, 0, 0, 10, 0, 0)
s = 98: (0, 0, 0, 14, 37, 0, 19, 0, 0, 10, 0, 0)
s = 99: (0, 0, 0, 9, 28, 0, 29, 0, 0, 22, 0, 0)
s = 100: (0, 0, 0, 11, 28, 0, 17, 0, 0, 13, 0, 0)
s = 101: (0, 0, 0, 13, 19, 0, 20, 0, 0, 11, 0, 0)
s = 102: (0, 0, 0, 9, 20, 0, 25, 0, 0, 18, 0, 0)
s = 103: (0, 0, 0, 12, 30, 0, 33, 0, 0, 13, 0, 0)
s = 104: (0, 0, 0, 7, 30, 0, 21, 0, 0, 20, 0, 0)
s = 105: (0, 0, 0, 10, 50, 0, 18, 0, 0, 12, 0, 0)
s = 106: (0, 0, 0, 19, 44, 0, 26, 0, 0, 24, 0, 0)
s = 107: (0, 0, 0, 17, 23, 0, 24, 0, 0, 10, 0, 0)
s = 108: (0, 0, 0, 8, 28, 0, 33, 0, 0, 12, 0, 0)
s = 109: (0, 0, 0, 16, 39, 0, 19, 0, 0, 11, 0, 0)
s = 110: (0, 0, 0, 16, 37, 0, 35, 0, 0, 15, 0, 0)
s = 111: (0, 0, 0, 13, 29, 0, 16, 0, 0, 13, 0, 0)
s = 112: (0, 0, 0, 13, 30, 0, 19, 0, 0, 18, 0, 0)
s = 113: (0, 0, 0, 20, 31, 0, 17, 0, 0, 12, 0, 0)
s = 114: (0, 0, 0, 15, 31, 0, 21, 0, 0, 18, 0, 0)
s = 115: (0, 0, 0, 19, 21, 0, 16, 0, 0, 10, 0, 0)
s = 116: (0, 0, 0, 16, 38, 0, 26, 0, 0, 14, 0, 0)
s = 117: (0, 0, 0, 8, 25, 0, 19, 0, 0, 15, 0, 0)
s = 118: (0, 0, 0, 13, 39, 0, 14, 0, 0, 14, 0, 0)
s = 119: (0, 0, 0, 15, 36, 0, 33, 0, 0, 19, 0, 0)
s = 120: (0, 0, 0, 11, 32, 0, 29, 0, 0, 8, 0, 0)
s = 121: (0, 0, 0, 9, 25, 0, 15, 0, 0, 17, 0, 0)
s = 122: (0, 0, 0, 12, 28, 0, 25, 0, 0, 12, 0, 0)
s = 123: (0, 0, 0, 14, 28, 0, 18, 0, 0, 13, 0, 0)
s = 124: (0, 0, 0, 13, 32, 0, 23, 0, 0, 14, 0, 0)
s = 125: (0, 0, 0, 16, 21, 0, 19, 0, 0, 15, 0, 0)
s = 126: (0, 0, 0, 12, 33, 0, 21, 0, 0, 9, 0, 0)
s = 127: (0, 0, 0, 13, 30, 0, 22, 0, 0, 8, 0, 0)
s = 128: (0, 0, 0, 11, 23, 0, 24, 0, 0, 9, 0, 0)
s = 129: (0, 0, 0, 11, 29, 0, 21, 0, 0, 16, 0, 0)
s = 130: (0, 0, 0, 13, 42, 0, 16, 0, 0, 16, 0, 0)
s = 131: (0, 0, 0, 11, 30, 0, 15, 0, 0, 10, 0, 0)
s = 132: (0, 0, 0, 12, 29, 0, 22, 0, 0, 12, 0, 0)
s = 133: (0, 0, 0, 13, 37, 0, 11, 0, 0, 16, 0, 0)
s = 134: (0, 0, 0, 12, 24, 0, 21, 0, 0, 17, 0, 0)
s = 135: (0, 0, 0, 15, 27, 0, 25, 0, 0, 17, 0, 0)
s = 136: (0, 0, 0, 10, 32, 0, 21, 0, 0, 19, 0, 0)
s = 137: (0, 0, 0, 9, 29, 0, 24, 0, 0, 18, 0, 0)
s = 138: (0, 0, 0, 20, 27, 0, 29, 0, 0, 16, 0, 0)
s = 139: (0, 0, 0, 12, 25, 0, 25, 0, 0, 14, 0, 0)
s = 140: (0, 0, 0, 19, 45, 0, 13, 0, 0, 13, 0, 0)
s = 141: (0, 0, 0, 11, 34, 0, 22, 0, 0, 11, 0, 0)
s = 142: (0, 0, 0, 23, 47, 0, 22, 0, 0, 19, 0, 0)
s = 143: (0, 0, 0, 16, 40, 0, 26, 0, 0, 11, 0, 0)
s = 144: (0, 0, 0, 10, 21, 0, 12, 0, 0, 18, 0, 0)
s = 145: (0, 0, 0, 9, 22, 0, 21, 0, 0, 12, 0, 0)
s = 146: (0, 0, 0, 12, 28, 0, 38, 0, 0, 16, 0, 0)
s = 147: (0, 0, 0, 8, 35, 0, 15, 0, 0, 11, 0, 0)
s = 148: (0, 0, 0, 14, 25, 0, 28, 0, 0, 10, 0, 0)
s = 149: (0, 0, 0, 16, 31, 0, 24, 0, 0, 9, 0, 0)
s = 150: (0, 0, 0, 14, 30, 0, 21, 0, 0, 20, 0, 0)
s = 151: (0, 0, 0, 13, 43, 0, 15, 0, 0, 13, 0, 0)
s = 152: (0, 0, 0, 14, 26, 0, 18, 0, 0, 11, 0, 0)
s = 153: (0, 0, 0, 12, 19, 0, 18, 0, 0, 15, 0, 0)
s = 154: (0, 0, 0, 14, 19, 0, 16, 0, 0, 12, 0, 0)
s = 155: (0, 0, 0, 18, 39, 0, 20, 0, 0, 16, 0, 0)
s = 156: (0, 0, 0, 10, 32, 0, 15, 0, 0, 15, 0, 0)
s = 157: (0, 0, 0, 10, 25, 0, 19, 0, 0, 25, 0, 0)
s = 158: (0, 0, 0, 17, 19, 0, 14, 0, 0, 10, 0, 0)
s = 159: (0, 0, 0, 11, 22, 0, 15, 0, 0, 17, 0, 0)
s = 160: (0, 0, 0, 18, 35, 0, 27, 0, 0, 23, 0, 0)
s = 161: (0, 0, 0, 10, 39, 0, 16, 0, 0, 20, 0, 0)
s = 162: (0, 0, 0, 13, 20, 0, 20, 0, 0, 17, 0, 0)
s = 163: (0, 0, 0, 11, 41, 0, 19, 0, 0, 15, 0, 0)
s = 164: (0, 0, 0, 13, 19, 0, 23, 0, 0, 10, 0, 0)
s = 165: (0, 0, 0, 18, 57, 0, 26, 0, 0, 21, 0, 0)
s = 166: (0, 0, 0, 16, 31, 0, 12, 0, 0, 16, 0, 0)
s = 167: (0, 0, 0, 8, 25, 0, 23, 0, 0, 15, 0, 0)
s = 168: (0, 0, 0, 13, 28, 0, 20, 0, 0, 16, 0, 0)
s = 169: (0, 0, 0, 9, 18, 0, 25, 0, 0, 9, 0, 0)
s = 170: (0, 0, 0, 15, 34, 0, 38, 0, 0, 12, 0, 0)
s = 171: (0, 0, 0, 21, 33, 0, 26, 0, 0, 10, 0, 0)
s = 172: (0, 0, 0, 13, 21, 0, 14, 0, 0, 21, 0, 0)
s = 173: (0, 0, 0, 15, 31, 0, 20, 0, 0, 15, 0, 0)
s = 174: (0, 0, 0, 14, 21, 0, 12, 0, 0, 15, 0, 0)
s = 175: (0, 0, 0, 11, 32, 0, 26, 0, 0, 9, 0, 0)
s = 176: (0, 0, 0, 16, 30, 0, 18, 0, 0, 12, 0, 0)
s = 177: (0, 0, 0, 16, 26, 0, 13, 0, 0, 9, 0, 0)
s = 178: (0, 0, 0, 15, 24, 0, 19, 0, 0, 19, 0, 0)
s = 179: (0, 0, 0, 9, 27, 0, 17, 0, 0, 11, 0, 0)
s = 180: (0, 0, 0, 11, 37, 0, 29, 0, 0, 15, 0, 0)
s = 181: (0, 0, 0, 11, 28, 0, 24, 0, 0, 14, 0, 0)
s = 182: (0, 0, 0, 10, 29, 0, 22, 0, 0, 10, 0, 0)
s = 183: (0, 0, 0, 10, 23, 0, 13, 0, 0, 9, 0, 0)
s = 184: (0, 0, 0, 11, 36, 0, 25, 0, 0, 9, 0, 0)
s = 185: (0, 0, 0, 12, 31, 0, 25, 0, 0, 12, 0, 0)
s = 186: (0, 0, 0, 14, 48, 0, 19, 0, 0, 9, 0, 0)
s = 187: (0, 0, 0, 13, 21, 0, 17, 0, 0, 22, 0, 0)
s = 188: (0, 0, 0, 18, 21, 0, 27, 0, 0, 13, 0, 0)
s = 189: (0, 0, 0, 12, 34, 0, 23, 0, 0, 15, 0, 0)
s = 190: (0, 0, 0, 16, 21, 0, 25, 0, 0, 14, 0, 0)
s = 191: (0, 0, 0, 22, 17, 0, 22, 0, 0, 21, 0, 0)
s = 192: (0, 0, 0, 10, 22, 0, 16, 0, 0, 16, 0, 0)
s = 193: (0, 0, 0, 13, 28, 0, 18, 0, 0, 18, 0, 0)
s = 194: (0, 0, 0, 11, 20, 0, 19, 0, 0, 16, 0, 0)
s = 195: (0, 0, 0, 12, 49, 0, 30, 0, 0, 15, 0, 0)
s = 196: (0, 0, 0, 16, 33, 0, 31, 0, 0, 12, 0, 0)
s = 197: (0, 0, 0, 11, 33, 0, 14, 0, 0, 10, 0, 0)
s = 198: (0, 0, 0, 7, 30, 0, 24, 0, 0, 13, 0, 0)
s = 199: (0, 0, 0, 15, 47, 0, 21, 0, 0, 16, 0, 0)
s = 200: (0, 0, 0, 15, 28, 0, 22, 0, 0, 9, 0, 0)
------------------------------------------------------------------------
RESOURCE k = 3
s = 1: (0, 11, 4, 0, 0, 24, 0, 70, 12, 0, 17, 0)
s = 2: (0, 12, 4, 0, 0, 32, 0, 50, 10, 0, 9, 0)
s = 3: (0, 11, 4, 0, 0, 26, 0, 44, 28, 0, 10, 0)
s = 4: (0, 12, 6, 0, 0, 30, 0, 79, 17, 0, 9, 0)
s = 5: (0, 7, 2, 0, 0, 34, 0, 58, 16, 0, 20, 0)
s = 6: (0, 13, 4, 0, 0, 15, 0, 49, 23, 0, 9, 0)
s = 7: (0, 9, 5, 0, 0, 25, 0, 33, 19, 0, 15, 0)
s = 8: (0, 16, 3, 0, 0, 22, 0, 51, 22, 0, 19, 0)
s = 9: (0, 13, 3, 0, 0, 16, 0, 38, 19, 0, 11, 0)
s = 10: (0, 11, 4, 0, 0, 26, 0, 59, 22, 0, 11, 0)
s = 11: (0, 12, 2, 0, 0, 32, 0, 42, 12, 0, 17, 0)
s = 12: (0, 15, 4, 0, 0, 24, 0, 43, 19, 0, 10, 0)
s = 13: (0, 7, 3, 0, 0, 15, 0, 81, 16, 0, 11, 0)
s = 14: (0, 10, 5, 0, 0, 18, 0, 51, 21, 0, 16, 0)
s = 15: (0, 9, 4, 0, 0, 21, 0, 56, 19, 0, 15, 0)
s = 16: (0, 9, 5, 0, 0, 24, 0, 64, 16, 0, 16, 0)
s = 17: (0, 11, 4, 0, 0, 26, 0, 50, 23, 0, 18, 0)
s = 18: (0, 16, 5, 0, 0, 19, 0, 33, 16, 0, 12, 0)
s = 19: (0, 13, 2, 0, 0, 27, 0, 70, 12, 0, 10, 0)
s = 20: (0, 11, 3, 0, 0, 22, 0, 74, 20, 0, 8, 0)
s = 21: (0, 16, 3, 0, 0, 28, 0, 56, 24, 0, 7, 0)
s = 22: (0, 7, 4, 0, 0, 28, 0, 38, 20, 0, 12, 0)
s = 23: (0, 8, 3, 0, 0, 39, 0, 47, 20, 0, 14, 0)
s = 24: (0, 9, 4, 0, 0, 22, 0, 73, 11, 0, 14, 0)
s = 25: (0, 16, 4, 0, 0, 28, 0, 51, 15, 0, 10, 0)
s = 26: (0, 15, 5, 0, 0, 18, 0, 94, 26, 0, 12, 0)
s = 27: (0, 12, 2, 0, 0, 15, 0, 34, 21, 0, 13, 0)
s = 28: (0, 13, 3, 0, 0, 20, 0, 73, 14, 0, 10, 0)
s = 29: (0, 17, 3, 0, 0, 18, 0, 71, 15, 0, 13, 0)
s = 30: (0, 6, 3, 0, 0, 24, 0, 87, 25, 0, 14, 0)
s = 31: (0, 7, 4, 0, 0, 16, 0, 33, 15, 0, 12, 0)
s = 32: (0, 14, 3, 0, 0, 20, 0, 33, 15, 0, 8, 0)
s = 33: (0, 12, 3, 0, 0, 19, 0, 77, 12, 0, 17, 0)
s = 34: (0, 8, 3, 0, 0, 27, 0, 47, 24, 0, 14, 0)
s = 35: (0, 10, 5, 0, 0, 26, 0, 34, 14, 0, 14, 0)
s = 36: (0, 10, 3, 0, 0, 30, 0, 73, 10, 0, 10, 0)
s = 37: (0, 9, 4, 0, 0, 23, 0, 60, 19, 0, 9, 0)
s = 38: (0, 13, 2, 0, 0, 27, 0, 42, 21, 0, 8, 0)
s = 39: (0, 8, 3, 0, 0, 20, 0, 53, 14, 0, 12, 0)
s = 40: (0, 11, 3, 0, 0, 19, 0, 53, 11, 0, 18, 0)
s = 41: (0, 12, 3, 0, 0, 28, 0, 64, 16, 0, 13, 0)
s = 42: (0, 10, 4, 0, 0, 26, 0, 53, 16, 0, 11, 0)
s = 43: (0, 8, 6, 0, 0, 28, 0, 77, 17, 0, 8, 0)
s = 44: (0, 11, 3, 0, 0, 16, 0, 63, 19, 0, 13, 0)
s = 45: (0, 10, 5, 0, 0, 30, 0, 35, 17, 0, 14, 0)
s = 46: (0, 9, 5, 0, 0, 20, 0, 39, 16, 0, 18, 0)
s = 47: (0, 6, 2, 0, 0, 21, 0, 44, 22, 0, 12, 0)
s = 48: (0, 8, 5, 0, 0, 25, 0, 42, 14, 0, 12, 0)
s = 49: (0, 13, 3, 0, 0, 27, 0, 40, 20, 0, 11, 0)
s = 50: (0, 8, 4, 0, 0, 23, 0, 59, 19, 0, 12, 0)
s = 51: (0, 12, 4, 0, 0, 19, 0, 37, 17, 0, 8, 0)
s = 52: (0, 8, 2, 0, 0, 25, 0, 53, 22, 0, 9, 0)
s = 53: (0, 9, 6, 0, 0, 16, 0, 46, 21, 0, 14, 0)
s = 54: (0, 14, 5, 0, 0, 34, 0, 53, 19, 0, 9, 0)
s = 55: (0, 11, 4, 0, 0, 16, 0, 57, 16, 0, 11, 0)
s = 56: (0, 13, 3, 0, 0, 33, 0, 57, 20, 0, 13, 0)
s = 57: (0, 7, 5, 0, 0, 22, 0, 82, 19, 0, 11, 0)
s = 58: (0, 16, 4, 0, 0, 16, 0, 80, 25, 0, 11, 0)
s = 59: (0, 8, 3, 0, 0, 29, 0, 47, 26, 0, 8, 0)
s = 60: (0, 9, 5, 0, 0, 16, 0, 44, 20, 0, 10, 0)
s = 61: (0, 7, 2, 0, 0, 16, 0, 52, 16, 0, 7, 0)
s = 62: (0, 8, 5, 0, 0, 16, 0, 70, 16, 0, 14, 0)
s = 63: (0, 10, 4, 0, 0, 23, 0, 55, 22, 0, 10, 0)
s = 64: (0, 10, 4, 0, 0, 32, 0, 46, 12, 0, 14, 0)
s = 65: (0, 10, 4, 0, 0, 24, 0, 55, 14, 0, 8, 0)
s = 66: (0, 13, 3, 0, 0, 15, 0, 66, 24, 0, 20, 0)
s = 67: (0, 12, 4, 0, 0, 21, 0, 46, 23, 0, 16, 0)
s = 68: (0, 7, 4, 0, 0, 39, 0, 57, 21, 0, 16, 0)
s = 69: (0, 9, 2, 0, 0, 40, 0, 54, 19, 0, 13, 0)
s = 70: (0, 11, 3, 0, 0, 31, 0, 75, 30, 0, 14, 0)
s = 71: (0, 10, 3, 0, 0, 23, 0, 61, 20, 0, 16, 0)
s = 72: (0, 7, 5, 0, 0, 23, 0, 52, 27, 0, 8, 0)
s = 73: (0, 15, 3, 0, 0, 27, 0, 70, 14, 0, 13, 0)
s = 74: (0, 8, 4, 0, 0, 16, 0, 73, 18, 0, 13, 0)
s = 75: (0, 15, 3, 0, 0, 24, 0, 65, 28, 0, 10, 0)
s = 76: (0, 17, 4, 0, 0, 20, 0, 49, 23, 0, 9, 0)
s = 77: (0, 9, 4, 0, 0, 22, 0, 37, 30, 0, 9, 0)
s = 78: (0, 11, 6, 0, 0, 27, 0, 60, 17, 0, 13, 0)
s = 79: (0, 17, 4, 0, 0, 26, 0, 78, 12, 0, 10, 0)
s = 80: (0, 9, 3, 0, 0, 30, 0, 49, 19, 0, 14, 0)
s = 81: (0, 7, 3, 0, 0, 16, 0, 60, 22, 0, 16, 0)
s = 82: (0, 12, 6, 0, 0, 30, 0, 55, 15, 0, 11, 0)
s = 83: (0, 9, 3, 0, 0, 27, 0, 57, 19, 0, 15, 0)
s = 84: (0, 10, 5, 0, 0, 16, 0, 44, 14, 0, 11, 0)
s = 85: (0, 9, 3, 0, 0, 28, 0, 44, 25, 0, 7, 0)
s = 86: (0, 13, 5, 0, 0, 22, 0, 68, 15, 0, 10, 0)
s = 87: (0, 10, 2, 0, 0, 24, 0, 35, 16, 0, 12, 0)
s = 88: (0, 9, 4, 0, 0, 23, 0, 37, 17, 0, 8, 0)
s = 89: (0, 13, 4, 0, 0, 19, 0, 58, 28, 0, 9, 0)
s = 90: (0, 11, 3, 0, 0, 21, 0, 58, 22, 0, 24, 0)
s = 91: (0, 13, 4, 0, 0, 16, 0, 48, 15, 0, 15, 0)
s = 92: (0, 8, 5, 0, 0, 16, 0, 40, 15, 0, 17, 0)
s = 93: (0, 8, 4, 0, 0, 28, 0, 55, 15, 0, 11, 0)
s = 94: (0, 11, 3, 0, 0, 24, 0, 90, 28, 0, 11, 0)
s = 95: (0, 13, 5, 0, 0, 29, 0, 52, 31, 0, 8, 0)
s = 96: (0, 10, 4, 0, 0, 18, 0, 46, 12, 0, 14, 0)
s = 97: (0, 12, 4, 0, 0, 25, 0, 55, 11, 0, 8, 0)
s = 98: (0, 8, 3, 0, 0, 25, 0, 75, 26, 0, 16, 0)
s = 99: (0, 8, 3, 0, 0, 25, 0, 51, 33, 0, 16, 0)
s = 100: (0, 9, 3, 0, 0, 23, 0, 55, 28, 0, 15, 0)
s = 101: (0, 11, 3, 0, 0, 22, 0, 62, 14, 0, 8, 0)
s = 102: (0, 7, 4, 0, 0, 22, 0, 33, 15, 0, 14, 0)
s = 103: (0, 12, 4, 0, 0, 15, 0, 38, 23, 0, 10, 0)
s = 104: (0, 15, 6, 0, 0, 25, 0, 43, 14, 0, 9, 0)
s = 105: (0, 13, 2, 0, 0, 19, 0, 49, 10, 0, 20, 0)
s = 106: (0, 7, 3, 0, 0, 27, 0, 53, 13, 0, 10, 0)
s = 107: (0, 13, 4, 0, 0, 24, 0, 45, 17, 0, 11, 0)
s = 108: (0, 7, 3, 0, 0, 23, 0, 35, 19, 0, 13, 0)
s = 109: (0, 11, 6, 0, 0, 36, 0, 46, 18, 0, 19, 0)
s = 110: (0, 11, 3, 0, 0, 39, 0, 49, 21, 0, 18, 0)
s = 111: (0, 12, 4, 0, 0, 20, 0, 63, 12, 0, 9, 0)
s = 112: (0, 11, 3, 0, 0, 15, 0, 44, 26, 0, 12, 0)
s = 113: (0, 8, 6, 0, 0, 33, 0, 72, 23, 0, 8, 0)
s = 114: (0, 10, 3, 0, 0, 16, 0, 51, 14, 0, 13, 0)
s = 115: (0, 12, 4, 0, 0, 18, 0, 50, 19, 0, 17, 0)
s = 116: (0, 14, 3, 0, 0, 15, 0, 71, 11, 0, 16, 0)
s = 117: (0, 10, 5, 0, 0, 21, 0, 68, 11, 0, 9, 0)
s = 118: (0, 9, 4, 0, 0, 36, 0, 48, 18, 0, 10, 0)
s = 119: (0, 7, 4, 0, 0, 19, 0, 38, 19, 0, 20, 0)
s = 120: (0, 12, 4, 0, 0, 19, 0, 70, 20, 0, 14, 0)
s = 121: (0, 12, 4, 0, 0, 17, 0, 83, 24, 0, 14, 0)
s = 122: (0, 10, 4, 0, 0, 31, 0, 67, 28, 0, 13, 0)
s = 123: (0, 9, 4, 0, 0, 36, 0, 65, 22, 0, 14, 0)
s = 124: (0, 7, 5, 0, 0, 35, 0, 65, 16, 0, 16, 0)
s = 125: (0, 10, 4, 0, 0, 14, 0, 53, 18, 0, 12, 0)
s = 126: (0, 9, 3, 0, 0, 22, 0, 62, 14, 0, 8, 0)
s = 127: (0, 10, 4, 0, 0, 26, 0, 36, 16, 0, 8, 0)
s = 128: (0, 12, 3, 0, 0, 28, 0, 49, 24, 0, 15, 0)
s = 129: (0, 12, 4, 0, 0, 21, 0, 68, 21, 0, 11, 0)
s = 130: (0, 13, 3, 0, 0, 22, 0, 58, 21, 0, 10, 0)
s = 131: (0, 7, 4, 0, 0, 17, 0, 50, 19, 0, 18, 0)
s = 132: (0, 9, 4, 0, 0, 27, 0, 39, 14, 0, 15, 0)
s = 133: (0, 8, 3, 0, 0, 20, 0, 64, 11, 0, 8, 0)
s = 134: (0, 10, 4, 0, 0, 16, 0, 42, 13, 0, 12, 0)
s = 135: (0, 7, 5, 0, 0, 34, 0, 35, 24, 0, 10, 0)
s = 136: (0, 13, 6, 0, 0, 16, 0, 72, 20, 0, 11, 0)
s = 137: (0, 10, 3, 0, 0, 23, 0, 80, 25, 0, 13, 0)
s = 138: (0, 10, 5, 0, 0, 22, 0, 44, 28, 0, 10, 0)
s = 139: (0, 9, 4, 0, 0, 27, 0, 67, 22, 0, 12, 0)
s = 140: (0, 11, 4, 0, 0, 28, 0, 57, 16, 0, 14, 0)
s = 141: (0, 8, 3, 0, 0, 37, 0, 42, 27, 0, 9, 0)
s = 142: (0, 9, 3, 0, 0, 19, 0, 59, 15, 0, 7, 0)
s = 143: (0, 7, 3, 0, 0, 28, 0, 36, 18, 0, 9, 0)
s = 144: (0, 14, 3, 0, 0, 20, 0, 76, 15, 0, 19, 0)
s = 145: (0, 8, 2, 0, 0, 28, 0, 58, 27, 0, 18, 0)
s = 146: (0, 8, 3, 0, 0, 20, 0, 39, 15, 0, 18, 0)
s = 147: (0, 8, 2, 0, 0, 27, 0, 39, 14, 0, 10, 0)
s = 148: (0, 8, 3, 0, 0, 19, 0, 43, 17, 0, 8, 0)
s = 149: (0, 13, 3, 0, 0, 21, 0, 43, 23, 0, 12, 0)
s = 150: (0, 9, 5, 0, 0, 30, 0, 59, 24, 0, 14, 0)
s = 151: (0, 11, 3, 0, 0, 34, 0, 38, 13, 0, 19, 0)
s = 152: (0, 7, 3, 0, 0, 32, 0, 60, 14, 0, 10, 0)
s = 153: (0, 11, 4, 0, 0, 22, 0, 54, 14, 0, 10, 0)
s = 154: (0, 11, 3, 0, 0, 19, 0, 65, 16, 0, 15, 0)
s = 155: (0, 10, 4, 0, 0, 15, 0, 72, 16, 0, 15, 0)
s = 156: (0, 14, 4, 0, 0, 16, 0, 57, 26, 0, 10, 0)
s = 157: (0, 11, 4, 0, 0, 20, 0, 44, 20, 0, 11, 0)
s = 158: (0, 9, 3, 0, 0, 20, 0, 47, 27, 0, 16, 0)
s = 159: (0, 8, 3, 0, 0, 27, 0, 59, 23, 0, 15, 0)
s = 160: (0, 7, 3, 0, 0, 37, 0, 65, 18, 0, 13, 0)
s = 161: (0, 10, 4, 0, 0, 17, 0, 55, 12, 0, 13, 0)
s = 162: (0, 10, 5, 0, 0, 25, 0, 76, 31, 0, 10, 0)
s = 163: (0, 9, 3, 0, 0, 26, 0, 46, 14, 0, 8, 0)
s = 164: (0, 12, 4, 0, 0, 31, 0, 39, 31, 0, 17, 0)
s = 165: (0, 12, 3, 0, 0, 18, 0, 48, 16, 0, 11, 0)
s = 166: (0, 12, 4, 0, 0, 30, 0, 61, 17, 0, 9, 0)
s = 167: (0, 7, 3, 0, 0, 37, 0, 90, 12, 0, 14, 0)
s = 168: (0, 17, 4, 0, 0, 22, 0, 44, 20, 0, 10, 0)
s = 169: (0, 15, 3, 0, 0, 21, 0, 70, 21, 0, 11, 0)
s = 170: (0, 13, 5, 0, 0, 29, 0, 39, 23, 0, 18, 0)
s = 171: (0, 11, 3, 0, 0, 34, 0, 59, 19, 0, 23, 0)
s = 172: (0, 8, 3, 0, 0, 22, 0, 88, 20, 0, 8, 0)
s = 173: (0, 9, 3, 0, 0, 22, 0, 52, 14, 0, 9, 0)
s = 174: (0, 9, 3, 0, 0, 15, 0, 44, 16, 0, 8, 0)
s = 175: (0, 14, 3, 0, 0, 23, 0, 33, 30, 0, 9, 0)
s = 176: (0, 7, 3, 0, 0, 19, 0, 43, 18, 0, 20, 0)
s = 177: (0, 8, 3, 0, 0, 17, 0, 33, 16, 0, 9, 0)
s = 178: (0, 12, 2, 0, 0, 18, 0, 62, 14, 0, 9, 0)
s = 179: (0, 11, 4, 0, 0, 17, 0, 65, 19, 0, 12, 0)
s = 180: (0, 10, 4, 0, 0, 24, 0, 79, 17, 0, 11, 0)
s = 181: (0, 10, 4, 0, 0, 21, 0, 60, 22, 0, 12, 0)
s = 182: (0, 16, 3, 0, 0, 20, 0, 76, 19, 0, 10, 0)
s = 183: (0, 11, 4, 0, 0, 20, 0, 33, 25, 0, 9, 0)
s = 184: (0, 7, 2, 0, 0, 18, 0, 71, 16, 0, 15, 0)
s = 185: (0, 10, 4, 0, 0, 30, 0, 64, 20, 0, 11, 0)
s = 186: (0, 9, 4, 0, 0, 20, 0, 50, 14, 0, 14, 0)
s = 187: (0, 9, 4, 0, 0, 22, 0, 53, 19, 0, 12, 0)
s = 188: (0, 13, 4, 0, 0, 21, 0, 61, 14, 0, 10, 0)
s = 189: (0, 7, 5, 0, 0, 27, 0, 64, 18, 0, 15, 0)
s = 190: (0, 11, 3, 0, 0, 18, 0, 51, 28, 0, 15, 0)
s = 191: (0, 14, 3, 0, 0, 18, 0, 48, 18, 0, 13, 0)
s = 192: (0, 15, 3, 0, 0, 17, 0, 38, 16, 0, 13, 0)
s = 193: (0, 9, 3, 0, 0, 23, 0, 58, 15, 0, 11, 0)
s = 194: (0, 10, 2, 0, 0, 23, 0, 36, 18, 0, 9, 0)
s = 195: (0, 7, 3, 0, 0, 19, 0, 64, 14, 0, 9, 0)
s = 196: (0, 9, 4, 0, 0, 36, 0, 55, 22, 0, 13, 0)
s = 197: (0, 9, 4, 0, 0, 19, 0, 58, 12, 0, 15, 0)
s = 198: (0, 15, 6, 0, 0, 31, 0, 83, 13, 0, 13, 0)
s = 199: (0, 9, 3, 0, 0, 22, 0, 41, 17, 0, 13, 0)
s = 200: (0, 8, 3, 0, 0, 26, 0, 33, 15, 0, 13, 0)
************************************************************************
ES/LS-VALUES:
jobnr.   ES(i)    LS(i)
------------------------------------------------------------------------
  0        0        0
  1        0       62
  2        0       62
  3        0       52
  4        2       64
  5       12       72
  6       12       64
  7       17       70
  8       12       86
  9       25       86
 10       32       86
 11       36       90
************************************************************************
BIG-M-VALUES:
M1 = 72, M2 = 418
************************************************************************
